11380219366841764705014,4,1,2,04,1,1,2,013,8,1,2,04,9,1,2,010,3,1,2,011,2,1,2,01,15,1,2,014,10,1,2,011,9,1,2,05,14,1,2,013,2,1,2,015,12,1,2,010,14,1,2,02,11,1,2,010,6,1,2,015,11,1,2,010,9,1,2,01,13,1,2,010,8,1,2,06,7,1,2,02,12,1,2,06,14,1,2,07,2,1,2,013,12,1,2,04,10,1,2,02,12,1,2,08,7,1,2,08,1,1,2,04,5,1,2,02,2,1,2,09,3,1,2,015,4,1,2,02,10,1,2,03,7,1,2,01,2,1,2,010,1,1,2,02,15,1,2,08,2,1,2,02,13,1,2,010,13,1,2,05,12,1,2,06,7,1,2,04,7,1,2,04,2,1,2,010,14,1,2,02,7,1,2,04,15,1,2,08,14,1,2,08,10,1,2,013,3,1,2,0